Route #1: 4 45 29 5 48 30
Route #2: 27 52 34 46 8 35 7
Route #3: 53 11 59 14 19
Route #4: 54 13 57 15 37 20 60 36 47
Route #5: 23 56 41 64 42 43 1
Route #6: 33 63 16 3 44 40
Route #7: 39 31 55 25 50 18 24 49
Route #8: 21 61 28 22 62 2
Route #9: 6 51 32 9 12 17
Route #10: 38 10 58 26
Cost 829